Route #1: 1 33 6 37 40 4 23 11 8 9 39 1
Route #2: 1 10 24 46 44 7 15 27 1
Route #3: 1 29 22 30 32 35 41 2 28 42 21 1
Route #4: 1 20 12 34 43 17 25 16 1
Route #5: 1 3 38 5 31 14 1
Route #6: 1 13 36 45 26 19 1
Route #7: 1 18 1
cost 1043
